c --- [ banner ] -------------------------------------------------------------
c 
c CaDiCaL Radically Simplified CDCL SAT Solver
c Copyright (c) 2016-2021 A. Biere, M. Fleury, N. Froleyks
c 
c Version 1.5.2 9c38a080b32c28d805e8e6ca21849856b0cda605
c g++ (Ubuntu 7.5.0-3ubuntu1~18.04) 7.5.0 -Wall -Wextra -O3 -DNDEBUG
c Wed Feb 16 23:15:36 EST 2022 Linux fac-vanhoeve01 5.4.0-99-generic x86_64
c 
c --- [ limit ] --------------------------------------------------------------
c 
c setting time limit to 600 seconds real time (due to '-t 600')
c setting conflict limit to 1000000000 conflicts (due to '1000000000')
c 
c --- [ parsing input ] ------------------------------------------------------
c 
c reading DIMACS file from 'ddfwcnfs/queen14_14.col_14.cnf'
c opening file to read 'ddfwcnfs/queen14_14.col_14.cnf'
c found 'p cnf 2744 52612' header
c parsed 52612 clauses in 0.03 seconds process time
c closing file 'ddfwcnfs/queen14_14.col_14.cnf'
c after reading 698722 bytes 0.7 MB
c 
c --- [ options ] ------------------------------------------------------------
c 
c all options are set to their default value
c 
c --- [ solving ] ------------------------------------------------------------
c 
c time measured in process time since initialization
c 
c  seconds  reductions  redundant  irredundant
c         MB    restarts       trail     variables
c          level   conflicts       glue       remaining
c 
c *  0.03  8  0 0   0    0    0  0% 0 52416 2548 93%
c {  0.03  9  0 0   0    0    0  0% 0 52416 2548 93%
c -  0.04  9 13 1   0  300  112 26% 10 52416 2548 93%
c -  0.08 10 13 2  12  900  419 26% 11 52416 2548 93%
c }  0.08 10 13 2  12 1000  485 26% 11 52416 2548 93%
c [  0.08 10  0 2  12 1000  485  0% 0 52416 2548 93%
c O  0.08 10 28 2  12 1002  487 33% 12 52416 2548 93%
c -  0.11 11 17 3  12 1800  722 26% 13 52416 2548 93%
c ]  0.15 11 17 3  13 3000 1572 26% 14 52416 2548 93%
c {  0.15 11 13 3  13 3000 1572 26% 11 52416 2548 93%
c -  0.16 11 13 4  13 3000 1109 26% 11 52416 2548 93%
c F  0.16 11 13 4  13 3004 1113 26% 11 52416 2548 93%
c -  0.21 11 13 5  76 4501 1101 26% 11 52416 2548 93%
c #  0.28 10 13 5  97 6005 1943 26% 11 52416 2548 93%
c -  0.30 10 13 6 107 6301 1427 26% 11 52416 2548 93%
c }  0.32 10 13 6 138 7001 1791 26% 11 52416 2548 93%
c [  0.32 10 17 6 138 7001 1791 26% 14 52416 2548 93%
c -  0.37 12 19 7 139 8401 1722 26% 14 52416 2548 93%
c s  0.39 12 19 7 139 8726 1766 26% 14 52416 2548 93%
c e  0.51 12 19 7 139 8726  111 26% 14 39480 2002 73%
c 
c  seconds  reductions  redundant   irredundant
c         MB    restarts       trail      variables
c          level   conflicts       glue        remaining
c 
c ^  0.54 12 19 7 139 8726  111 26% 14 39480 2002 73%
c I  0.59 11 21 7 140 10007 1115 21% 15 39480 2002 73%
c -  0.69 13 40 8 141 10801 1787 45% 21 39480 2002 73%
c -  1.05 13 63 9 143 13502 3136 68% 34 39480 2002 73%
c ]  1.23 13 70 9 143 15002 4484 71% 39 39480 2002 73%
c {  1.23 13 13 9 143 15002 4484 35% 11 39480 2002 73%
c B  1.28 13 13 9 145 15009 4491 36% 11 39480 2002 73%
c -  1.34 13 15 10 528 16502 3085 32% 12 39480 2002 73%
c -  1.47 11 16 11 1039 19803 2851 28% 13 39480 2002 73%
c W  1.58 11 17 11 1184 21011 3500 28% 13 39480 2002 73%
c -  1.77 13 21 12 1383 23408 3546 30% 14 39480 2002 73%
c s  2.03 13 25 12 1673 25936 5680 32% 15 39480 2002 73%
c s  2.15 13 25 12 1673 25936 5669 32% 15 39480 2002 73%
c ^  2.16 13 25 12 1673 25936 5669 32% 15 39480 2002 73%
c -  2.37 14 28 13 1970 27309 4977 35% 17 39480 2002 73%
c F  2.40 14 27 13 1970 28015 5346 35% 16 39480 2002 73%
c }  2.56 14 26 13 1970 31005 7486 33% 16 39480 2002 73%
c [  2.56 14 70 13 1970 31005 7486 71% 39 39480 2002 73%
c -  2.60 14 69 14 1970 31510 4209 69% 38 39480 2002 73%
c -  2.79 14 56 15 1973 36012 4468 53% 32 39480 2002 73%
c 
c  seconds  reductions     redundant   irredundant
c         MB     restarts         trail      variables
c          level      conflicts       glue        remaining
c 
c B  2.79 14 56 15 1973 36019 4475 53% 32 39480 2002 73%
c -  3.50 17 87 16 1976 40812 5669 63% 43 39480 2002 73%
c W  4.23 17 91 16 1977 45020 9584 67% 47 39480 2002 73%
c -  4.40 14 91 17 1978 45912 6692 68% 48 39480 2002 73%
c -  5.37 17 90 18 1978 51314 6940 72% 50 39480 2002 73%
c s  5.46 17 90 18 1978 51747 7225 72% 51 39480 2002 73%
c s  5.60 17 90 18 1978 51747 7196 72% 51 39480 2002 73%
c ^  5.61 17 90 18 1978 51747 7196 72% 51 39480 2002 73%
c O  6.15 17 89 18 1979 55021 10183 73% 52 39480 2002 73%
c -  6.25 17 85 19 1981 57014 7563 70% 49 39480 2002 73%
c ]  6.46 17 74 19 1985 63007 11582 61% 43 39480 2002 73%
c {  6.46 17 26 19 1985 63007 11582 33% 16 39480 2002 73%
c -  6.48 17 26 20 1985 63015 6192 33% 16 39480 2002 73%
c B  6.60 17 24 20 1988 66022 8421 31% 16 39480 2002 73%
c -  6.79 17 24 21 2155 69316 6111 32% 16 39480 2002 73%
c -  7.21 17 25 22 2429 75918 6427 31% 16 39480 2002 73%
c W  7.46 17 26 22 2621 78024 7876 32% 16 39480 2002 73%
c -  7.67 17 25 23 2747 82818 6329 32% 16 39480 2002 73%
c s  7.79 17 25 23 2752 86162 7886 31% 15 39480 2002 73%
c s  7.88 17 25 23 2752 86162 7799 31% 15 39480 2002 73%
c 
c  seconds  reductions     redundant   irredundant
c         MB     restarts         trail      variables
c          level      conflicts       glue        remaining
c 
c ^  7.89 17 25 23 2752 86162 7799 31% 15 39480 2002 73%
c -  8.03 17 24 24 2752 90019 6325 30% 15 39480 2002 73%
c #  8.07 17 23 24 2752 91027 7032 30% 15 39480 2002 73%
c -  8.32 17 22 25 2752 97520 6797 29% 15 39480 2002 73%
c B  8.71 17 21 25 2754 105032 12316 28% 14 39480 2002 73%
c -  8.77 17 21 26 2819 105321 7706 28% 14 39480 2002 73%
c -  9.05 17 20 27 2836 113422 7021 27% 14 39480 2002 73%
c W  9.44 17 19 27 2863 120034 11634 26% 14 39480 2002 73%
c -  9.55 17 19 28 2868 121825 7843 26% 14 39480 2002 73%
c }  9.77 17 19 28 2876 127007 10854 26% 13 39480 2002 73%
c [  9.77 17 74 28 2876 127007 10854 61% 43 39480 2002 73%
c s  9.87 17 71 28 2876 129179 11702 59% 42 39480 2002 73%
c s 10.00 17 71 28 2876 129179 11179 59% 42 39480 2002 73%
c ^ 10.01 17 71 28 2876 129179 11179 59% 42 39480 2002 73%
c - 10.09 17 70 29 2876 130526 7741 57% 41 39480 2002 73%
c B 10.34 17 64 29 2881 136035 11850 52% 38 39480 2002 73%
c - 10.80 17 72 30 2883 139527 9967 55% 41 39480 2002 73%
c - 12.45 21 73 31 2884 148827 11111 60% 44 39480 2002 73%
c W 13.36 21 73 31 2885 153037 14800 62% 45 39480 2002 73%
c - 14.42 21 72 32 2885 158427 11899 64% 46 39480 2002 73%
c 
c  seconds  reductions       redundant   irredundant
c         MB     restarts           trail      variables
c          level      conflicts         glue        remaining
c 
c - 16.30 21 70 33 2886 168329 13002 67% 47 39480 2002 73%
c I 16.78 21 70 33 2888 171038 15238 68% 47 39480 2002 73%
c - 18.18 24 85 34 2892 178530 13792 70% 54 39480 2002 73%
c s 18.74 24 87 34 2893 180799 15768 71% 56 39480 2002 73%
c s 18.90 24 87 34 2893 180799 15678 71% 56 39480 2002 73%
c - 20.64 23 91 35 2899 189031 14339 72% 58 39480 2002 73%
c B 20.84 23 92 35 2899 190040 15277 72% 59 39480 2002 73%
c - 23.19 20 93 36 2900 199831 14404 74% 61 39480 2002 73%
c W 26.01 20 93 36 2907 210042 23355 76% 62 39480 2002 73%
c - 26.33 26 93 37 2907 210932 15034 76% 62 39480 2002 73%
c - 28.85 32 94 38 2914 222332 15363 77% 64 39480 2002 73%
c O 30.79 32 94 38 2915 231044 23204 78% 64 39480 2002 73%
c - 30.94 32 91 39 2915 234033 15156 76% 62 39480 2002 73%
c - 31.43 32 81 40 2916 246035 12004 68% 56 39480 2002 73%
c B 31.80 32 77 40 2917 253045 17588 64% 53 39480 2002 73%
c ] 32.02 32 83 40 2917 255010 19374 64% 53 39480 2002 73%
c { 32.02 32 19 40 2917 255010 19374 26% 13 39480 2002 73%
c - 32.20 18 19 41 2980 258335 12741 26% 13 39480 2002 73%
c - 32.70 19 18 42 3012 270936 10604 25% 13 39480 2002 73%
c F 32.99 19 17 42 3042 276051 14162 25% 13 39480 2002 73%
c 
c  seconds  reductions       redundant   irredundant
c         MB     restarts           trail      variables
c          level      conflicts         glue        remaining
c 
c - 33.30 19 17 43 3054 283838 11139 24% 13 39480 2002 73%
c - 33.84 19 16 44 3093 297042 10756 24% 12 39480 2002 73%
c B 33.97 19 16 44 3118 300052 12582 24% 12 39480 2002 73%
c - 34.51 21 17 45 3461 310545 13165 24% 12 39480 2002 73%
c - 35.30 21 16 46 3869 324346 12014 24% 12 39480 2002 73%
c W 35.66 21 16 46 3901 325054 12341 24% 12 39480 2002 73%
c - 36.45 21 17 47 4515 338446 11784 25% 13 39480 2002 73%
c # 36.93 21 17 47 4733 351055 20332 25% 13 39480 2002 73%
c - 37.02 21 17 48 4749 352846 12712 25% 13 39480 2002 73%
c - 37.56 21 16 49 4932 367546 11291 25% 13 39480 2002 73%
c B 37.96 21 16 49 5056 378056 16864 24% 12 39480 2002 73%
c - 38.24 21 17 50 5322 382546 11522 25% 13 39480 2002 73%
c - 38.86 21 16 51 5438 397846 12284 24% 12 39480 2002 73%
c W 39.61 21 16 51 5589 406058 17114 24% 12 39480 2002 73%
c - 39.97 21 16 52 5820 413448 13371 25% 12 39480 2002 73%
c - 40.58 21 16 53 5986 429350 12452 24% 12 39480 2002 73%
c F 40.81 21 16 53 6086 435059 15489 24% 12 39480 2002 73%
c - 41.22 21 15 54 6237 445551 11799 24% 12 39480 2002 73%
c - 41.91 21 15 55 6389 462051 12425 24% 12 39480 2002 73%
c B 42.02 21 15 55 6406 465060 14123 24% 12 39480 2002 73%
c 
c  seconds  reductions       redundant   irredundant
c         MB     restarts           trail      variables
c          level      conflicts         glue        remaining
c 
c - 42.90 21 16 56 7253 478852 14145 25% 12 39480 2002 73%
c - 43.64 21 16 57 7378 495954 13738 24% 12 39480 2002 73%
c s 43.68 21 16 57 7378 495954 10759 24% 12 39480 2002 73%
c w 43.76 21 16 57 7378 495954 10757 24% 12 39480 2002 73%
c W 44.27 21 16 57 7378 496063 10811 24% 12 39480 2002 73%
c } 44.91 21 16 57 7901 511010 19381 25% 12 39480 2002 73%
c [ 44.91 21 83 57 7901 511010 19381 64% 53 39480 2002 73%
c - 45.03 21 81 58 7901 513355 13966 63% 52 39480 2002 73%
c W 46.70 21 81 58 7901 528065 25019 59% 49 39480 2002 73%
c - 47.17 24 83 59 7901 531055 17843 60% 50 39480 2002 73%
c - 49.74 31 87 60 7908 549059 20158 63% 53 39480 2002 73%
c I 52.10 31 87 60 7915 561066 30804 66% 54 39480 2002 73%
c - 53.41 40 104 61 7916 567359 22210 67% 59 39480 2002 73%
c - 58.02 43 121 62 7924 585960 23513 69% 71 39480 2002 73%
c B 60.64 43 124 62 7930 595067 31736 70% 75 39480 2002 73%
c - 62.69 41 129 63 7931 604861 24793 71% 75 39480 2002 73%
c - 66.76 31 124 64 7933 624061 23926 73% 76 39480 2002 73%
c W 68.34 31 123 64 7938 630068 29516 73% 75 39480 2002 73%
c - 71.08 37 116 65 7945 643561 24506 75% 73 39480 2002 73%
c - 75.07 37 108 66 7953 663361 24452 76% 70 39480 2002 73%
c 
c  seconds   reductions       redundant   irredundant
c         MB      restarts           trail      variables
c           level      conflicts         glue        remaining
c 
c O 75.57 37 107 66 7954 666069 26642 76% 70 39480 2002 73%
c - 76.63 37 95 67 7962 683463 22163 68% 62 39480 2002 73%
c B 77.60 37 82 67 7963 703071 34905 60% 54 39480 2002 73%
c - 77.74 37 84 68 7963 703863 20038 60% 54 39480 2002 73%
c - 81.16 37 87 69 7964 724563 24443 65% 55 39480 2002 73%
c W 85.93 37 85 69 7965 741073 39474 67% 54 39480 2002 73%
c - 88.06 40 84 70 7965 745564 27765 68% 54 39480 2002 73%
c - 93.07 40 79 71 7965 766865 29232 71% 53 39480 2002 73%
c I 96.51 40 76 71 7965 780075 41577 73% 52 39480 2002 73%
c - 98.54 53 105 72 7965 788466 30769 73% 60 39480 2002 73%
c - 104.06 57 155 73 7969 810366 28981 74% 74 39480 2002 73%
c B 106.17 57 152 73 7974 820077 37643 75% 75 39480 2002 73%
c - 108.06 41 144 74 7980 832569 28060 76% 73 39480 2002 73%
c - 113.07 50 130 75 7990 855069 28350 77% 70 39480 2002 73%
c s 113.12 50 130 75 7990 855069 25815 77% 70 39480 2002 73%
c w 113.27 50 130 75 7990 855069 25815 77% 70 39480 2002 73%
c W 115.31 50 126 75 7994 861079 30894 78% 69 39480 2002 73%
c - 118.01 50 123 76 7996 877871 29806 79% 66 39480 2002 73%
c - 122.47 50 110 77 8003 900973 29020 80% 62 39480 2002 73%
c O 122.97 50 109 77 8005 903080 30605 80% 62 39480 2002 73%
c 
c  seconds   reductions       redundant   irredundant
c          MB     restarts           trail      variables
c           level      conflicts         glue        remaining
c 
c - 126.60 50 97 78 8014 924373 28529 80% 58 39480 2002 73%
c B 130.74 50 88 78 8025 946085 46641 80% 55 39480 2002 73%
c - 131.06 50 89 79 8026 948074 29414 80% 55 39480 2002 73%
c - 134.80 53 84 80 8028 972075 29485 81% 54 39480 2002 73%
c W 139.48 53 80 80 8028 990088 45670 81% 53 39480 2002 73%
c - 141.06 53 79 81 8028 996376 31999 81% 53 39480 2002 73%
c - 146.02 53 76 82 8038 1020977 32749 81% 53 39480 2002 73%
c ] 146.40 53 76 82 8040 1023010 34484 81% 53 39480 2002 73%
c { 146.40 53 16 82 8040 1023010 34484 25% 12 39480 2002 73%
c # 146.95 53 17 82 10504 1035090 40506 25% 13 39480 2002 73%
c - 147.40 53 17 83 10579 1045878 24800 25% 13 39480 2002 73%
c - 148.60 53 17 84 10712 1071078 22947 24% 12 39480 2002 73%
c B 149.09 53 16 84 10766 1081091 29751 24% 12 39480 2002 73%
c - 149.76 53 17 85 11348 1096582 21606 24% 13 39480 2002 73%
c - 150.82 53 16 86 11833 1122382 19800 24% 12 39480 2002 73%
c W 152.03 53 16 86 11885 1128092 22523 24% 12 39480 2002 73%
c - 153.23 53 18 87 13184 1148483 22394 26% 13 39480 2002 73%
c - 154.26 53 17 88 13332 1174883 21845 25% 13 39480 2002 73%
c F 154.31 53 17 88 13332 1176093 22522 25% 13 39480 2002 73%
c - 155.33 53 16 89 13444 1201583 21650 24% 12 39480 2002 73%
c 
c  seconds   reductions         redundant   irredundant
c          MB      restarts            trail      variables
c           level        conflicts         glue        remaining
c 
c B 156.36 53 15 89 13682 1225097 33927 24% 12 39480 2002 73%
c - 156.60 53 16 90 13933 1228584 20369 24% 12 39480 2002 73%
c - 157.85 53 17 91 15521 1255884 20673 25% 13 39480 2002 73%
c s 157.89 53 17 91 15521 1255884 17198 25% 13 39480 2002 73%
c w 157.96 53 17 91 15521 1255884 17197 25% 13 39480 2002 73%
c W 159.92 53 17 91 18989 1275100 26937 25% 13 39480 2002 73%
c - 160.34 53 17 92 20281 1283485 18943 24% 13 39480 2002 73%
c - 161.79 53 17 93 21283 1311389 22167 24% 13 39480 2002 73%
c # 162.50 53 16 93 21447 1326102 30335 24% 13 39480 2002 73%
c - 163.12 53 16 94 21517 1339591 22853 23% 13 39480 2002 73%
c - 164.46 53 15 95 21783 1368091 22474 23% 12 39480 2002 73%
c B 164.89 53 15 95 21849 1378103 27386 23% 12 39480 2002 73%
c - 165.82 53 16 96 22844 1396893 21923 24% 12 39480 2002 73%
c - 166.86 53 15 97 23475 1425993 20697 24% 12 39480 2002 73%
c W 168.23 53 15 97 23569 1431104 23295 24% 12 39480 2002 73%
c - 169.42 53 16 98 25032 1455393 21188 24% 13 39480 2002 73%
c - 170.60 53 15 99 26340 1485093 20415 24% 12 39480 2002 73%
c F 170.60 53 15 99 26340 1485107 20429 24% 12 39480 2002 73%
c - 171.80 53 15 100 27085 1515095 21299 23% 12 39480 2002 73%
c B 172.80 53 14 100 27424 1540111 33568 23% 12 39480 2002 73%
c 
c  seconds    reductions         redundant   irredundant
c          MB       restarts            trail      variables
c           level         conflicts         glue        remaining
c 
c - 173.54 53 17 101 28665 1545395 23049 26% 13 39480 2002 73%
c - 174.96 53 18 102 29650 1575995 24911 26% 13 39480 2002 73%
c W 177.24 53 17 102 29846 1596112 36582 25% 13 39480 2002 73%
c - 177.80 53 17 103 30050 1606896 24708 24% 13 39480 2002 73%
c - 179.23 53 16 104 30474 1638097 23110 23% 13 39480 2002 73%
c # 179.84 53 15 104 30663 1653116 31077 22% 13 39480 2002 73%
c - 180.55 53 15 105 31001 1669599 23626 22% 12 39480 2002 73%
c - 181.71 53 15 106 31949 1701399 22613 22% 12 39480 2002 73%
c s 181.72 53 15 106 31949 1701399 17907 22% 12 39480 2002 73%
c w 181.79 53 15 106 31949 1701399 17903 22% 12 39480 2002 73%
c B 182.19 53 15 106 32201 1711117 23175 22% 12 39480 2002 73%
c - 183.36 53 17 107 33658 1733499 24303 24% 13 39480 2002 73%
c - 184.69 53 16 108 34228 1765903 25741 23% 13 39480 2002 73%
c W 186.24 53 16 108 34260 1770120 28252 23% 12 39480 2002 73%
c - 187.50 53 15 109 34495 1798604 25942 23% 12 39480 2002 73%
c F 189.03 53 15 109 34741 1830121 43644 23% 12 39480 2002 73%
c - 189.12 53 15 110 34760 1831606 25504 23% 12 39480 2002 73%
c - 190.54 53 14 111 35131 1864906 25959 22% 12 39480 2002 73%
c B 191.82 53 14 111 35596 1891122 39427 22% 11 39480 2002 73%
c - 192.17 53 14 112 36022 1898507 24433 23% 12 39480 2002 73%
c 
c  seconds    reductions         redundant   irredundant
c          MB       restarts            trail      variables
c           level         conflicts         glue        remaining
c 
c - 193.42 53 14 113 37012 1932409 22286 23% 12 39480 2002 73%
c W 195.93 53 14 113 37592 1953124 32034 23% 12 39480 2002 73%
c - 196.63 53 14 114 37798 1966609 22842 23% 12 39480 2002 73%
c - 198.29 53 13 115 38704 2001109 23818 23% 11 39480 2002 73%
c # 198.95 53 13 115 39239 2016125 30849 23% 11 39480 2002 73%
c - 199.75 53 14 116 43050 2035911 21973 23% 12 39480 2002 73%
c } 200.18 53 14 116 44471 2047016 26638 23% 12 39480 2002 73%
c [ 200.18 53 76 116 44471 2047016 26638 81% 53 39480 2002 73%
c - 201.44 53 64 117 44481 2071011 27501 68% 45 39480 2002 73%
c I 201.94 53 61 117 44486 2080127 33955 64% 43 39480 2002 73%
c - 206.44 53 79 118 44490 2106411 39072 69% 50 39480 2002 73%
c - 215.01 60 84 119 44505 2142111 44576 73% 56 39480 2002 73%
c B 215.82 60 84 119 44505 2145128 47197 73% 57 39480 2002 73%
c - 224.56 74 85 120 44520 2178111 46339 76% 59 39480 2002 73%
c s 224.62 74 85 120 44520 2178111 42536 76% 59 39480 2002 73%
c w 224.81 74 85 120 44520 2178111 42532 76% 59 39480 2002 73%
c W 235.86 74 82 120 44522 2211129 72441 78% 59 39480 2002 73%
c - 236.43 74 89 121 44522 2214411 49074 78% 60 39480 2002 73%
c - 244.20 74 111 122 44523 2251011 47049 78% 65 39480 2002 73%
c O 250.99 74 109 122 44523 2278134 72563 79% 66 39480 2002 73%
c 
c  seconds     reductions         redundant   irredundant
c          MB        restarts            trail      variables
c            level         conflicts         glue        remaining
c 
c - 251.54 74 101 123 44523 2287912 47910 75% 62 39480 2002 73%
c - 254.36 74 80 124 44524 2325112 41123 62% 50 39480 2002 73%
c B 256.11 74 72 124 44524 2346135 56942 56% 46 39480 2002 73%
c - 258.49 74 107 125 44524 2362612 46778 60% 54 39480 2002 73%
c - 266.68 74 167 126 44524 2400412 50537 66% 72 39480 2002 73%
c W 271.99 74 185 126 44524 2415137 64622 68% 75 39480 2002 73%
c - 276.61 85 165 127 44531 2438512 51010 72% 71 39480 2002 73%
c - 285.11 85 133 128 44549 2476915 48228 76% 65 39480 2002 73%
c I 287.02 85 128 128 44553 2485138 55424 76% 64 39480 2002 73%
c - 293.35 85 139 129 44559 2515615 50640 78% 72 39480 2002 73%
c - 305.24 85 124 130 44577 2554616 48727 80% 70 39480 2002 73%
c B 305.88 85 124 130 44577 2556139 49995 80% 70 39480 2002 73%
c - 315.12 85 113 131 44587 2593916 48860 81% 69 39480 2002 73%
c W 330.34 85 105 131 44589 2628140 79436 81% 68 39480 2002 73%
c - 331.36 85 105 132 44593 2633516 51273 81% 67 39480 2002 73%
c - 340.55 85 92 133 44610 2673417 48280 82% 61 39480 2002 73%
c O 347.50 85 84 133 44618 2701144 72484 82% 58 39480 2002 73%
c - 350.73 85 80 134 44621 2713617 49510 82% 56 39480 2002 73%
c s 350.84 85 80 134 44621 2713617 49044 82% 56 39480 2002 73%
c w 351.13 85 80 134 44621 2713617 49035 82% 56 39480 2002 73%
c 
c  seconds    reductions         redundant   irredundant
c          MB       restarts            trail      variables
c           level         conflicts         glue        remaining
c 
c - 360.92 85 72 135 44640 2754121 52385 83% 52 39480 2002 73%
c B 367.11 85 69 135 44648 2775145 71670 83% 51 39480 2002 73%
c - 375.56 85 67 136 44650 2794921 54590 83% 50 39480 2002 73%
c - 389.88 85 64 137 44651 2836023 55136 83% 49 39480 2002 73%
c W 398.12 85 64 137 44651 2850148 67878 83% 49 39480 2002 73%
c - 408.65 85 63 138 44651 2877424 56596 83% 49 39480 2002 73%
c - 422.46 87 61 139 44666 2919125 58461 83% 49 39480 2002 73%
c I 424.27 87 60 139 44667 2926149 64839 83% 49 39480 2002 73%
c - 433.08 87 87 140 44682 2961125 54457 84% 63 39480 2002 73%
c B 446.12 87 101 140 44697 3003152 93170 84% 70 39480 2002 73%
c - 446.32 69 101 141 44697 3003425 56062 84% 70 39480 2002 73%
c - 459.59 68 100 142 44713 3046026 57505 85% 71 39480 2002 73%
c W 474.20 68 99 142 44714 3081154 89394 85% 71 39480 2002 73%
c - 477.32 68 99 143 44714 3088926 59620 85% 71 39480 2002 73%
c - 491.27 88 98 144 44735 3132126 57763 85% 71 39480 2002 73%
c O 500.57 88 96 144 44745 3160157 83062 85% 70 39480 2002 73%
c - 501.46 88 86 145 44746 3175627 58112 77% 63 39480 2002 73%
c - 505.22 88 65 146 44767 3219428 51840 58% 48 39480 2002 73%
c B 507.33 88 57 146 44775 3240158 66254 51% 42 39480 2002 73%
c - 510.92 88 66 147 44777 3263531 55037 58% 46 39480 2002 73%
c 
c  seconds    reductions         redundant   irredundant
c          MB       restarts            trail      variables
c           level         conflicts         glue        remaining
c 
c - 519.16 88 67 148 44778 3307932 56785 67% 46 39480 2002 73%
c s 519.28 88 67 148 44778 3307932 56464 67% 46 39480 2002 73%
c w 519.53 88 67 148 44778 3307932 56451 67% 46 39480 2002 73%
c W 526.18 88 66 148 44778 3321159 68248 68% 46 39480 2002 73%
c - 534.71 90 65 149 44778 3352632 61794 72% 47 39480 2002 73%
c - 546.98 90 63 150 44779 3397633 61861 76% 47 39480 2002 73%
c I 548.35 90 63 150 44779 3403160 66747 77% 47 39480 2002 73%
c - 559.59 124 180 151 44779 3442933 60984 78% 81 39480 2002 73%
c B 577.72 124 263 151 44779 3486163 102350 79% 110 39480 2002 73%
c - 578.29 130 261 152 44779 3488533 64065 79% 109 39480 2002 73%
c - 588.45 90 197 153 44780 3534434 58775 81% 90 39480 2002 73%
c ] 599.85 90 157 153 44780 3570164 89270 82% 79 39480 2002 73%
c ? 599.85 90 157 153 44780 3570164 89270 82% 79 39480 2002 73%
c 
c --- [ result ] -------------------------------------------------------------
c 
c UNKNOWN
c 
c --- [ run-time profiling ] -------------------------------------------------
c 
c process time taken by individual solving procedures
c (percentage relative to process time for solving)
c 
c       591.74   98.65% search
c       501.39   83.59% stable
c        60.70   10.12% unstable
c        29.65    4.94% walk
c         8.08    1.35% simplify
c         3.96    0.66% probe
c         1.24    0.21% vivify
c         0.62    0.10% subsume
c         0.61    0.10% ternary
c         0.29    0.05% elim
c         0.03    0.00% parse
c         0.00    0.00% lucky
c   =================================
c       599.82  100.00% solve
c 
c last line shows process time for solving
c (percentage relative to total process time)
c 
c --- [ statistics ] ---------------------------------------------------------
c 
c chronological:            546364        15.30 %  of conflicts
c conflicts:               3570164      5952.02    per second
c decisions:               4724057      7875.74    per second
c eliminated:                  546        19.90 %  of all variables
c fixed:                       196         7.14 %  of all variables
c learned:                 3530474        98.89 %  per conflict
c learned_lits:          408924907       100.00 %  learned literals
c minimized:                     0         0.00 %  learned literals
c shrunken:              167265402        40.90 %  learned literals
c minishrunken:           29826971         7.29 %  learned literals
c propagations:          441795153         0.74 M  per second
c reduced:                 2596003        72.71 %  per conflict
c rephased:                     84     42501.95    interval
c restarts:                  44780        79.73    interval
c stabilizing:                   6        61.77 %  of conflicts
c subsumed:                 843509        11.75 %  of all clauses
c strengthened:              18077         0.25 %  of all clauses
c vivified:                    251         0.00 %  of all clauses
c walked:                       27    132228.30    interval
c weakened:                  19224         2.41    average size
c 
c seconds are measured in process time for solving
c 
c --- [ resources ] ----------------------------------------------------------
c 
c total process time since initialization:       599.85    seconds
c total real time since initialization:          600.02    seconds
c maximum resident set size of process:          164.82    MB
c 
c --- [ shutting down ] ------------------------------------------------------
c 
c exit 0
